ACTORES = { Actor1 , Actor2 , Actor3 , Actor4 };

Escenas =
[| 1 , 0 , 1 , 1 , 10
| 0 , 1 , 0 , 1 , 20
| 0 , 1 , 1 , 0 , 5
| 1 , 0 , 0 , 1 , 2|];

Duracion =
[ 2 , 3 , 1 , 2 ];

Maximo_tiempo_actores = [5 , 5 , 4 , 4];

Actores_separados = [];